certificates/rado_a11_c35_N21.cnf
c Rad2 upper bound instance: x1 + 11*x2 - x3 = 35, interval [1,21]
p cnf 21 80
1 4 10 0
-1 -4 -10 0
1 5 21 0
-1 -5 -21 0
2 4 11 0
-2 -4 -11 0
1 3 0
-1 -3 0
3 4 12 0
-3 -4 -12 0
2 3 4 0
-2 -3 -4 0
4 13 0
-4 -13 0
3 5 0
-3 -5 0
4 5 14 0
-4 -5 -14 0
3 4 6 0
-3 -4 -6 0
4 6 15 0
-4 -6 -15 0
3 5 7 0
-3 -5 -7 0
4 7 16 0
-4 -7 -16 0
3 6 8 0
-3 -6 -8 0
4 8 17 0
-4 -8 -17 0
3 7 9 0
-3 -7 -9 0
4 9 18 0
-4 -9 -18 0
3 8 10 0
-3 -8 -10 0
4 10 19 0
-4 -10 -19 0
3 9 11 0
-3 -9 -11 0
4 11 20 0
-4 -11 -20 0
3 10 12 0
-3 -10 -12 0
4 12 21 0
-4 -12 -21 0
3 11 13 0
-3 -11 -13 0
1 2 14 0
-1 -2 -14 0
3 12 14 0
-3 -12 -14 0
2 15 0
-2 -15 0
3 13 15 0
-3 -13 -15 0
2 3 16 0
-2 -3 -16 0
3 14 16 0
-3 -14 -16 0
2 4 17 0
-2 -4 -17 0
3 15 17 0
-3 -15 -17 0
2 5 18 0
-2 -5 -18 0
3 16 18 0
-3 -16 -18 0
2 6 19 0
-2 -6 -19 0
3 17 19 0
-3 -17 -19 0
2 7 20 0
-2 -7 -20 0
3 18 20 0
-3 -18 -20 0
2 8 21 0
-2 -8 -21 0
3 19 21 0
-3 -19 -21 0
