certificates/rado_a11_c35_N21.drat
3 -21 0
-20 -3 0
4 -3 0
-3 -21 0
d -19 -3 -21 0
-21 0
-3 0
1 0
5 0
19 0
-4 0
12 0
13 0
6 0
2 0
0
